p cnf 21 111
1 2 3 0
-1 -2 0
-1 -3 0
-2 -3 0
4 5 6 0
-4 -5 0
-4 -6 0
-5 -6 0
7 8 0
-7 -8 0
9 10 0
-9 -10 0
11 12 0
-11 -12 0
13 14 0
-13 -14 0
15 16 0
-15 -16 0
17 18 0
-17 -18 0
-1 7 0
-2 9 0
-3 11 0
-4 8 0
-5 10 0
-6 12 0
-1 13 0
-2 15 0
-3 17 0
-4 14 0
-5 16 0
-6 18 0
-7 -7 7 0
-7 -9 9 0
-7 -11 11 0
-9 -7 7 0
-9 -9 9 0
-9 -11 11 0
-11 -7 7 0
-11 -9 9 0
-11 -11 11 0
-7 -8 8 0
-7 -10 10 0
-7 -12 12 0
-9 -8 8 0
-9 -10 10 0
-9 -12 12 0
-11 -8 8 0
-11 -10 10 0
-11 -12 12 0
-8 -13 7 0
-8 -15 9 0
-8 -17 11 0
-10 -13 7 0
-10 -15 9 0
-10 -17 11 0
-12 -13 7 0
-12 -15 9 0
-12 -17 11 0
-8 -14 8 0
-8 -16 10 0
-8 -18 12 0
-10 -14 8 0
-10 -16 10 0
-10 -18 12 0
-12 -14 8 0
-12 -16 10 0
-12 -18 12 0
-13 -7 13 0
-13 -9 15 0
-13 -11 17 0
-15 -7 13 0
-15 -9 15 0
-15 -11 17 0
-17 -7 13 0
-17 -9 15 0
-17 -11 17 0
-13 -8 14 0
-13 -10 16 0
-13 -12 18 0
-15 -8 14 0
-15 -10 16 0
-15 -12 18 0
-17 -8 14 0
-17 -10 16 0
-17 -12 18 0
-14 -13 13 0
-14 -15 15 0
-14 -17 17 0
-16 -13 13 0
-16 -15 15 0
-16 -17 17 0
-18 -13 13 0
-18 -15 15 0
-18 -17 17 0
-14 -14 14 0
-14 -16 16 0
-14 -18 18 0
-16 -14 14 0
-16 -16 16 0
-16 -18 18 0
-18 -14 14 0
-18 -16 16 0
-18 -18 18 0
-19 -1 0
-19 -4 0
-20 -2 0
-20 -5 0
-21 -3 0
-21 -6 0
19 20 21 0
