p cnf 132 379
1 2 0
-1 -2 0
3 4 0
-3 -4 0
5 6 0
-5 -6 0
7 8 9 0
-7 -8 0
-7 -9 0
-8 -9 0
10 11 12 0
-10 -11 0
-10 -12 0
-11 -12 0
13 14 15 0
-13 -14 0
-13 -15 0
-14 -15 0
16 17 18 0
-16 -17 0
-16 -18 0
-17 -18 0
19 20 21 0
-19 -20 0
-19 -21 0
-20 -21 0
22 23 24 0
-22 -23 0
-22 -24 0
-23 -24 0
-7 1 0
-10 2 0
-8 3 0
-11 4 0
-9 5 0
-12 6 0
-13 1 0
-16 2 0
-14 3 0
-17 4 0
-15 5 0
-18 6 0
-19 1 0
-22 2 0
-20 3 0
-23 4 0
-21 5 0
-24 6 0
-1 7 0
-2 10 0
-3 14 0
-4 17 0
-5 21 0
-6 24 0
-25 7 0
-25 7 0
-25 -7 0
-26 7 0
-26 10 0
-26 -10 0
-27 10 0
-27 7 0
-27 -7 0
-28 10 0
-28 10 0
-28 -10 0
-29 7 0
-29 8 0
-29 -8 0
-30 7 0
-30 11 0
-30 -11 0
-31 10 0
-31 8 0
-31 -8 0
-32 10 0
-32 11 0
-32 -11 0
-33 7 0
-33 9 0
-33 -9 0
-34 7 0
-34 12 0
-34 -12 0
-35 10 0
-35 9 0
-35 -9 0
-36 10 0
-36 12 0
-36 -12 0
-37 8 0
-37 13 0
-37 -7 0
-38 8 0
-38 16 0
-38 -10 0
-39 11 0
-39 13 0
-39 -7 0
-40 11 0
-40 16 0
-40 -10 0
-41 8 0
-41 14 0
-41 -8 0
-42 8 0
-42 17 0
-42 -11 0
-43 11 0
-43 14 0
-43 -8 0
-44 11 0
-44 17 0
-44 -11 0
-45 8 0
-45 15 0
-45 -9 0
-46 8 0
-46 18 0
-46 -12 0
-47 11 0
-47 15 0
-47 -9 0
-48 11 0
-48 18 0
-48 -12 0
-49 9 0
-49 19 0
-49 -7 0
-50 9 0
-50 22 0
-50 -10 0
-51 12 0
-51 19 0
-51 -7 0
-52 12 0
-52 22 0
-52 -10 0
-53 9 0
-53 20 0
-53 -8 0
-54 9 0
-54 23 0
-54 -11 0
-55 12 0
-55 20 0
-55 -8 0
-56 12 0
-56 23 0
-56 -11 0
-57 9 0
-57 21 0
-57 -9 0
-58 9 0
-58 24 0
-58 -12 0
-59 12 0
-59 21 0
-59 -9 0
-60 12 0
-60 24 0
-60 -12 0
-61 13 0
-61 7 0
-61 -13 0
-62 13 0
-62 10 0
-62 -16 0
-63 16 0
-63 7 0
-63 -13 0
-64 16 0
-64 10 0
-64 -16 0
-65 13 0
-65 8 0
-65 -14 0
-66 13 0
-66 11 0
-66 -17 0
-67 16 0
-67 8 0
-67 -14 0
-68 16 0
-68 11 0
-68 -17 0
-69 13 0
-69 9 0
-69 -15 0
-70 13 0
-70 12 0
-70 -18 0
-71 16 0
-71 9 0
-71 -15 0
-72 16 0
-72 12 0
-72 -18 0
-73 14 0
-73 13 0
-73 -13 0
-74 14 0
-74 16 0
-74 -16 0
-75 17 0
-75 13 0
-75 -13 0
-76 17 0
-76 16 0
-76 -16 0
-77 14 0
-77 14 0
-77 -14 0
-78 14 0
-78 17 0
-78 -17 0
-79 17 0
-79 14 0
-79 -14 0
-80 17 0
-80 17 0
-80 -17 0
-81 14 0
-81 15 0
-81 -15 0
-82 14 0
-82 18 0
-82 -18 0
-83 17 0
-83 15 0
-83 -15 0
-84 17 0
-84 18 0
-84 -18 0
-85 15 0
-85 19 0
-85 -13 0
-86 15 0
-86 22 0
-86 -16 0
-87 18 0
-87 19 0
-87 -13 0
-88 18 0
-88 22 0
-88 -16 0
-89 15 0
-89 20 0
-89 -14 0
-90 15 0
-90 23 0
-90 -17 0
-91 18 0
-91 20 0
-91 -14 0
-92 18 0
-92 23 0
-92 -17 0
-93 15 0
-93 21 0
-93 -15 0
-94 15 0
-94 24 0
-94 -18 0
-95 18 0
-95 21 0
-95 -15 0
-96 18 0
-96 24 0
-96 -18 0
-97 19 0
-97 7 0
-97 -19 0
-98 19 0
-98 10 0
-98 -22 0
-99 22 0
-99 7 0
-99 -19 0
-100 22 0
-100 10 0
-100 -22 0
-101 19 0
-101 8 0
-101 -20 0
-102 19 0
-102 11 0
-102 -23 0
-103 22 0
-103 8 0
-103 -20 0
-104 22 0
-104 11 0
-104 -23 0
-105 19 0
-105 9 0
-105 -21 0
-106 19 0
-106 12 0
-106 -24 0
-107 22 0
-107 9 0
-107 -21 0
-108 22 0
-108 12 0
-108 -24 0
-109 20 0
-109 13 0
-109 -19 0
-110 20 0
-110 16 0
-110 -22 0
-111 23 0
-111 13 0
-111 -19 0
-112 23 0
-112 16 0
-112 -22 0
-113 20 0
-113 14 0
-113 -20 0
-114 20 0
-114 17 0
-114 -23 0
-115 23 0
-115 14 0
-115 -20 0
-116 23 0
-116 17 0
-116 -23 0
-117 20 0
-117 15 0
-117 -21 0
-118 20 0
-118 18 0
-118 -24 0
-119 23 0
-119 15 0
-119 -21 0
-120 23 0
-120 18 0
-120 -24 0
-121 21 0
-121 19 0
-121 -19 0
-122 21 0
-122 22 0
-122 -22 0
-123 24 0
-123 19 0
-123 -19 0
-124 24 0
-124 22 0
-124 -22 0
-125 21 0
-125 20 0
-125 -20 0
-126 21 0
-126 23 0
-126 -23 0
-127 24 0
-127 20 0
-127 -20 0
-128 24 0
-128 23 0
-128 -23 0
-129 21 0
-129 21 0
-129 -21 0
-130 21 0
-130 24 0
-130 -24 0
-131 24 0
-131 21 0
-131 -21 0
-132 24 0
-132 24 0
-132 -24 0
25 26 27 28 29 30 31 32 33 34 35 36 37 38 39 40 41 42 43 44 45 46 47 48 49 50 51 52 53 54 55 56 57 58 59 60 61 62 63 64 65 66 67 68 69 70 71 72 73 74 75 76 77 78 79 80 81 82 83 84 85 86 87 88 89 90 91 92 93 94 95 96 97 98 99 100 101 102 103 104 105 106 107 108 109 110 111 112 113 114 115 116 117 118 119 120 121 122 123 124 125 126 127 128 129 130 131 132 0
