p cnf 20 55
1 2 0
-1 -2 0
3 4 0
-3 -4 0
5 6 0
-5 -6 0
7 8 0
-7 -8 0
9 10 0
-9 -10 0
11 12 0
-11 -12 0
-1 -5 1 0
-2 -7 2 0
-1 -6 3 0
-2 -8 4 0
-3 -9 1 0
-4 -11 2 0
-3 -10 3 0
-4 -12 4 0
-5 -1 5 0
-5 -2 7 0
-7 -1 5 0
-7 -2 7 0
-6 -3 6 0
-6 -4 8 0
-8 -3 6 0
-8 -4 8 0
-9 -1 9 0
-9 -2 11 0
-11 -1 9 0
-11 -2 11 0
-10 -3 10 0
-10 -4 12 0
-12 -3 10 0
-12 -4 12 0
1 3 0
2 4 0
-13 5 0
-13 7 0
-14 7 0
-14 5 0
-15 6 0
-15 8 0
-16 8 0
-16 6 0
-17 9 0
-17 11 0
-18 11 0
-18 9 0
-19 10 0
-19 12 0
-20 12 0
-20 10 0
13 14 15 16 17 18 19 20 0
